nK = 1809;
nT = 6;
nI = 14;
L = 29;
TT = 371;
np = 1;
nc = 3;
b = [63, 25, 46, 47, 25, 29, 64, 31, 34, 33, 22, 43, 51, 37];
d = [99, 128, 117, 106, 127, 97, 138, 149, 61, 115, 112, 71, 95, 87];
m = [1.6, 1.2, 1.4, 1.9, 2.2, 2.1, 1.8, 1.2, 2.3, 2.4, 1.8, 1, 1.3, 1.3];
pt = [0.3, 0.3, 0.2, 0.34, 0.32, 0.28];
st = [12.6, 13.2, 9.2, 16.32, 13.76, 15.4];
arc = {<1, 0, 1, 1, 0, 0, 0, [1, 1, 1, 1, 1, 1]>, <2, 1, 2, 1, 0, 0, 0, [1, 1, 1, 1, 1, 1]>, <3, 2, 3, 1, 0, 0, 0, [1, 1, 1, 1, 1, 1]>, <4, 3, 4, 1, 0, 0, 0, [1, 1, 1, 1, 1, 1]>, <5, 4, 5, 1, 0, 0, 0, [1, 1, 1, 1, 1, 1]>, <6, 5, 6, 1, 0, 0, 0, [1, 1, 1, 1, 1, 1]>, <7, 6, 7, 1, 0, 0, 0, [1, 1, 1, 1, 1, 1]>, <8, 7, 8, 1, 0, 0, 0, [1, 1, 1, 1, 1, 1]>, <9, 8, 9, 1, 0, 0, 0, [1, 1, 1, 1, 1, 1]>, <10, 9, 10, 1, 0, 0, 0, [1, 1, 1, 1, 1, 1]>, <11, 10, 11, 1, 0, 0, 0, [1, 1, 1, 1, 1, 1]>, <12, 11, 12, 1, 0, 0, 0, [1, 1, 1, 1, 1, 1]>, <13, 12, 13, 1, 0, 0, 0, [1, 1, 1, 1, 1, 1]>, <14, 13, 14, 1, 0, 0, 0, [1, 1, 1, 1, 1, 1]>, <15, 14, 15, 1, 0, 0, 0, [1, 1, 1, 1, 1, 1]>, <16, 15, 16, 1, 0, 0, 0, [1, 1, 1, 1, 1, 1]>, <17, 16, 17, 1, 0, 0, 0, [1, 1, 1, 1, 1, 1]>, <18, 17, 18, 1, 0, 0, 0, [1, 1, 1, 1, 1, 1]>, <19, 18, 19, 1, 0, 0, 0, [1, 1, 1, 1, 1, 1]>, <20, 19, 20, 1, 0, 0, 0, [1, 1, 1, 1, 1, 1]>, <21, 20, 21, 1, 0, 0, 0, [1, 1, 1, 1, 1, 1]>, <22, 21, 22, 1, 0, 0, 0, [1, 1, 1, 1, 1, 1]>, <23, 22, 23, 1, 0, 0, 0, [1, 1, 1, 1, 1, 1]>, <24, 23, 24, 1, 0, 0, 0, [1, 1, 1, 1, 1, 1]>, <25, 24, 25, 1, 0, 0, 0, [1, 1, 1, 1, 1, 1]>, <26, 25, 26, 1, 0, 0, 0, [1, 1, 1, 1, 1, 1]>, <27, 26, 27, 1, 0, 0, 0, [1, 1, 1, 1, 1, 1]>, <28, 27, 28, 1, 0, 0, 0, [1, 1, 1, 1, 1, 1]>, <29, 28, 29, 1, 0, 0, 0, [1, 1, 1, 1, 1, 1]>, <30, 0, 15, 15, 1, 0, 1, [1, 1, 1, 0, 0, 1]>, <31, 1, 16, 15, 1, 0, 1, [1, 1, 1, 0, 0, 1]>, <32, 2, 17, 15, 1, 0, 1, [1, 1, 1, 0, 0, 1]>, <33, 3, 18, 15, 1, 0, 1, [1, 1, 1, 0, 0, 1]>, <34, 4, 19, 15, 1, 0, 1, [1, 1, 1, 0, 0, 1]>, <35, 5, 20, 15, 1, 0, 1, [1, 1, 1, 0, 0, 1]>, <36, 6, 21, 15, 1, 0, 1, [1, 1, 1, 0, 0, 1]>, <37, 7, 22, 15, 1, 0, 1, [1, 1, 1, 0, 0, 1]>, <38, 8, 23, 15, 1, 0, 1, [1, 1, 1, 0, 0, 1]>, <39, 9, 24, 15, 1, 0, 1, [1, 1, 1, 0, 0, 1]>, <40, 10, 25, 15, 1, 0, 1, [1, 1, 1, 0, 0, 1]>, <41, 11, 26, 15, 1, 0, 1, [1, 1, 1, 0, 0, 1]>, <42, 12, 27, 15, 1, 0, 1, [1, 1, 1, 0, 0, 1]>, <43, 13, 28, 15, 1, 0, 1, [1, 1, 1, 0, 0, 1]>, <44, 14, 29, 15, 1, 0, 1, [1, 1, 1, 0, 0, 1]>, <45, 0, 14, 14, 2, 1, 0, [0, 1, 1, 1, 1, 0]>, <46, 1, 15, 14, 2, 1, 0, [0, 1, 1, 1, 1, 0]>, <47, 2, 16, 14, 2, 1, 0, [0, 1, 1, 1, 1, 0]>, <48, 3, 17, 14, 2, 1, 0, [0, 1, 1, 1, 1, 0]>, <49, 4, 18, 14, 2, 1, 0, [0, 1, 1, 1, 1, 0]>, <50, 5, 19, 14, 2, 1, 0, [0, 1, 1, 1, 1, 0]>, <51, 6, 20, 14, 2, 1, 0, [0, 1, 1, 1, 1, 0]>, <52, 7, 21, 14, 2, 1, 0, [0, 1, 1, 1, 1, 0]>, <53, 8, 22, 14, 2, 1, 0, [0, 1, 1, 1, 1, 0]>, <54, 9, 23, 14, 2, 1, 0, [0, 1, 1, 1, 1, 0]>, <55, 10, 24, 14, 2, 1, 0, [0, 1, 1, 1, 1, 0]>, <56, 11, 25, 14, 2, 1, 0, [0, 1, 1, 1, 1, 0]>, <57, 12, 26, 14, 2, 1, 0, [0, 1, 1, 1, 1, 0]>, <58, 13, 27, 14, 2, 1, 0, [0, 1, 1, 1, 1, 0]>, <59, 14, 28, 14, 2, 1, 0, [0, 1, 1, 1, 1, 0]>, <60, 15, 29, 14, 2, 1, 0, [0, 1, 1, 1, 1, 0]>, <61, 0, 17, 17, 3, 0, 0, [1, 1, 1, 1, 0, 0]>, <62, 1, 18, 17, 3, 0, 0, [1, 1, 1, 1, 0, 0]>, <63, 2, 19, 17, 3, 0, 0, [1, 1, 1, 1, 0, 0]>, <64, 3, 20, 17, 3, 0, 0, [1, 1, 1, 1, 0, 0]>, <65, 4, 21, 17, 3, 0, 0, [1, 1, 1, 1, 0, 0]>, <66, 5, 22, 17, 3, 0, 0, [1, 1, 1, 1, 0, 0]>, <67, 6, 23, 17, 3, 0, 0, [1, 1, 1, 1, 0, 0]>, <68, 7, 24, 17, 3, 0, 0, [1, 1, 1, 1, 0, 0]>, <69, 8, 25, 17, 3, 0, 0, [1, 1, 1, 1, 0, 0]>, <70, 9, 26, 17, 3, 0, 0, [1, 1, 1, 1, 0, 0]>, <71, 10, 27, 17, 3, 0, 0, [1, 1, 1, 1, 0, 0]>, <72, 11, 28, 17, 3, 0, 0, [1, 1, 1, 1, 0, 0]>, <73, 12, 29, 17, 3, 0, 0, [1, 1, 1, 1, 0, 0]>, <74, 0, 17, 17, 4, 0, 1, [1, 1, 1, 0, 0, 1]>, <75, 1, 18, 17, 4, 0, 1, [1, 1, 1, 0, 0, 1]>, <76, 2, 19, 17, 4, 0, 1, [1, 1, 1, 0, 0, 1]>, <77, 3, 20, 17, 4, 0, 1, [1, 1, 1, 0, 0, 1]>, <78, 4, 21, 17, 4, 0, 1, [1, 1, 1, 0, 0, 1]>, <79, 5, 22, 17, 4, 0, 1, [1, 1, 1, 0, 0, 1]>, <80, 6, 23, 17, 4, 0, 1, [1, 1, 1, 0, 0, 1]>, <81, 7, 24, 17, 4, 0, 1, [1, 1, 1, 0, 0, 1]>, <82, 8, 25, 17, 4, 0, 1, [1, 1, 1, 0, 0, 1]>, <83, 9, 26, 17, 4, 0, 1, [1, 1, 1, 0, 0, 1]>, <84, 10, 27, 17, 4, 0, 1, [1, 1, 1, 0, 0, 1]>, <85, 11, 28, 17, 4, 0, 1, [1, 1, 1, 0, 0, 1]>, <86, 12, 29, 17, 4, 0, 1, [1, 1, 1, 0, 0, 1]>, <87, 0, 15, 15, 5, 0, 1, [1, 0, 0, 1, 1, 1]>, <88, 1, 16, 15, 5, 0, 1, [1, 0, 0, 1, 1, 1]>, <89, 2, 17, 15, 5, 0, 1, [1, 0, 0, 1, 1, 1]>, <90, 3, 18, 15, 5, 0, 1, [1, 0, 0, 1, 1, 1]>, <91, 4, 19, 15, 5, 0, 1, [1, 0, 0, 1, 1, 1]>, <92, 5, 20, 15, 5, 0, 1, [1, 0, 0, 1, 1, 1]>, <93, 6, 21, 15, 5, 0, 1, [1, 0, 0, 1, 1, 1]>, <94, 7, 22, 15, 5, 0, 1, [1, 0, 0, 1, 1, 1]>, <95, 8, 23, 15, 5, 0, 1, [1, 0, 0, 1, 1, 1]>, <96, 9, 24, 15, 5, 0, 1, [1, 0, 0, 1, 1, 1]>, <97, 10, 25, 15, 5, 0, 1, [1, 0, 0, 1, 1, 1]>, <98, 11, 26, 15, 5, 0, 1, [1, 0, 0, 1, 1, 1]>, <99, 12, 27, 15, 5, 0, 1, [1, 0, 0, 1, 1, 1]>, <100, 13, 28, 15, 5, 0, 1, [1, 0, 0, 1, 1, 1]>, <101, 14, 29, 15, 5, 0, 1, [1, 0, 0, 1, 1, 1]>, <102, 0, 14, 14, 6, 1, 0, [1, 1, 1, 1, 0, 0]>, <103, 1, 15, 14, 6, 1, 0, [1, 1, 1, 1, 0, 0]>, <104, 2, 16, 14, 6, 1, 0, [1, 1, 1, 1, 0, 0]>, <105, 3, 17, 14, 6, 1, 0, [1, 1, 1, 1, 0, 0]>, <106, 4, 18, 14, 6, 1, 0, [1, 1, 1, 1, 0, 0]>, <107, 5, 19, 14, 6, 1, 0, [1, 1, 1, 1, 0, 0]>, <108, 6, 20, 14, 6, 1, 0, [1, 1, 1, 1, 0, 0]>, <109, 7, 21, 14, 6, 1, 0, [1, 1, 1, 1, 0, 0]>, <110, 8, 22, 14, 6, 1, 0, [1, 1, 1, 1, 0, 0]>, <111, 9, 23, 14, 6, 1, 0, [1, 1, 1, 1, 0, 0]>, <112, 10, 24, 14, 6, 1, 0, [1, 1, 1, 1, 0, 0]>, <113, 11, 25, 14, 6, 1, 0, [1, 1, 1, 1, 0, 0]>, <114, 12, 26, 14, 6, 1, 0, [1, 1, 1, 1, 0, 0]>, <115, 13, 27, 14, 6, 1, 0, [1, 1, 1, 1, 0, 0]>, <116, 14, 28, 14, 6, 1, 0, [1, 1, 1, 1, 0, 0]>, <117, 15, 29, 14, 6, 1, 0, [1, 1, 1, 1, 0, 0]>, <118, 0, 14, 14, 7, 0, 0, [1, 0, 0, 1, 1, 1]>, <119, 1, 15, 14, 7, 0, 0, [1, 0, 0, 1, 1, 1]>, <120, 2, 16, 14, 7, 0, 0, [1, 0, 0, 1, 1, 1]>, <121, 3, 17, 14, 7, 0, 0, [1, 0, 0, 1, 1, 1]>, <122, 4, 18, 14, 7, 0, 0, [1, 0, 0, 1, 1, 1]>, <123, 5, 19, 14, 7, 0, 0, [1, 0, 0, 1, 1, 1]>, <124, 6, 20, 14, 7, 0, 0, [1, 0, 0, 1, 1, 1]>, <125, 7, 21, 14, 7, 0, 0, [1, 0, 0, 1, 1, 1]>, <126, 8, 22, 14, 7, 0, 0, [1, 0, 0, 1, 1, 1]>, <127, 9, 23, 14, 7, 0, 0, [1, 0, 0, 1, 1, 1]>, <128, 10, 24, 14, 7, 0, 0, [1, 0, 0, 1, 1, 1]>, <129, 11, 25, 14, 7, 0, 0, [1, 0, 0, 1, 1, 1]>, <130, 12, 26, 14, 7, 0, 0, [1, 0, 0, 1, 1, 1]>, <131, 13, 27, 14, 7, 0, 0, [1, 0, 0, 1, 1, 1]>, <132, 14, 28, 14, 7, 0, 0, [1, 0, 0, 1, 1, 1]>, <133, 15, 29, 14, 7, 0, 0, [1, 0, 0, 1, 1, 1]>, <134, 0, 15, 15, 8, 0, 0, [0, 0, 1, 1, 1, 1]>, <135, 1, 16, 15, 8, 0, 0, [0, 0, 1, 1, 1, 1]>, <136, 2, 17, 15, 8, 0, 0, [0, 0, 1, 1, 1, 1]>, <137, 3, 18, 15, 8, 0, 0, [0, 0, 1, 1, 1, 1]>, <138, 4, 19, 15, 8, 0, 0, [0, 0, 1, 1, 1, 1]>, <139, 5, 20, 15, 8, 0, 0, [0, 0, 1, 1, 1, 1]>, <140, 6, 21, 15, 8, 0, 0, [0, 0, 1, 1, 1, 1]>, <141, 7, 22, 15, 8, 0, 0, [0, 0, 1, 1, 1, 1]>, <142, 8, 23, 15, 8, 0, 0, [0, 0, 1, 1, 1, 1]>, <143, 9, 24, 15, 8, 0, 0, [0, 0, 1, 1, 1, 1]>, <144, 10, 25, 15, 8, 0, 0, [0, 0, 1, 1, 1, 1]>, <145, 11, 26, 15, 8, 0, 0, [0, 0, 1, 1, 1, 1]>, <146, 12, 27, 15, 8, 0, 0, [0, 0, 1, 1, 1, 1]>, <147, 13, 28, 15, 8, 0, 0, [0, 0, 1, 1, 1, 1]>, <148, 14, 29, 15, 8, 0, 0, [0, 0, 1, 1, 1, 1]>, <149, 0, 16, 16, 9, 1, 0, [1, 1, 1, 1, 0, 0]>, <150, 1, 17, 16, 9, 1, 0, [1, 1, 1, 1, 0, 0]>, <151, 2, 18, 16, 9, 1, 0, [1, 1, 1, 1, 0, 0]>, <152, 3, 19, 16, 9, 1, 0, [1, 1, 1, 1, 0, 0]>, <153, 4, 20, 16, 9, 1, 0, [1, 1, 1, 1, 0, 0]>, <154, 5, 21, 16, 9, 1, 0, [1, 1, 1, 1, 0, 0]>, <155, 6, 22, 16, 9, 1, 0, [1, 1, 1, 1, 0, 0]>, <156, 7, 23, 16, 9, 1, 0, [1, 1, 1, 1, 0, 0]>, <157, 8, 24, 16, 9, 1, 0, [1, 1, 1, 1, 0, 0]>, <158, 9, 25, 16, 9, 1, 0, [1, 1, 1, 1, 0, 0]>, <159, 10, 26, 16, 9, 1, 0, [1, 1, 1, 1, 0, 0]>, <160, 11, 27, 16, 9, 1, 0, [1, 1, 1, 1, 0, 0]>, <161, 12, 28, 16, 9, 1, 0, [1, 1, 1, 1, 0, 0]>, <162, 13, 29, 16, 9, 1, 0, [1, 1, 1, 1, 0, 0]>, <163, 0, 17, 17, 10, 0, 0, [1, 1, 1, 1, 0, 0]>, <164, 1, 18, 17, 10, 0, 0, [1, 1, 1, 1, 0, 0]>, <165, 2, 19, 17, 10, 0, 0, [1, 1, 1, 1, 0, 0]>, <166, 3, 20, 17, 10, 0, 0, [1, 1, 1, 1, 0, 0]>, <167, 4, 21, 17, 10, 0, 0, [1, 1, 1, 1, 0, 0]>, <168, 5, 22, 17, 10, 0, 0, [1, 1, 1, 1, 0, 0]>, <169, 6, 23, 17, 10, 0, 0, [1, 1, 1, 1, 0, 0]>, <170, 7, 24, 17, 10, 0, 0, [1, 1, 1, 1, 0, 0]>, <171, 8, 25, 17, 10, 0, 0, [1, 1, 1, 1, 0, 0]>, <172, 9, 26, 17, 10, 0, 0, [1, 1, 1, 1, 0, 0]>, <173, 10, 27, 17, 10, 0, 0, [1, 1, 1, 1, 0, 0]>, <174, 11, 28, 17, 10, 0, 0, [1, 1, 1, 1, 0, 0]>, <175, 12, 29, 17, 10, 0, 0, [1, 1, 1, 1, 0, 0]>, <176, 0, 15, 15, 11, 0, 1, [0, 0, 1, 1, 1, 1]>, <177, 1, 16, 15, 11, 0, 1, [0, 0, 1, 1, 1, 1]>, <178, 2, 17, 15, 11, 0, 1, [0, 0, 1, 1, 1, 1]>, <179, 3, 18, 15, 11, 0, 1, [0, 0, 1, 1, 1, 1]>, <180, 4, 19, 15, 11, 0, 1, [0, 0, 1, 1, 1, 1]>, <181, 5, 20, 15, 11, 0, 1, [0, 0, 1, 1, 1, 1]>, <182, 6, 21, 15, 11, 0, 1, [0, 0, 1, 1, 1, 1]>, <183, 7, 22, 15, 11, 0, 1, [0, 0, 1, 1, 1, 1]>, <184, 8, 23, 15, 11, 0, 1, [0, 0, 1, 1, 1, 1]>, <185, 9, 24, 15, 11, 0, 1, [0, 0, 1, 1, 1, 1]>, <186, 10, 25, 15, 11, 0, 1, [0, 0, 1, 1, 1, 1]>, <187, 11, 26, 15, 11, 0, 1, [0, 0, 1, 1, 1, 1]>, <188, 12, 27, 15, 11, 0, 1, [0, 0, 1, 1, 1, 1]>, <189, 13, 28, 15, 11, 0, 1, [0, 0, 1, 1, 1, 1]>, <190, 14, 29, 15, 11, 0, 1, [0, 0, 1, 1, 1, 1]>, <191, 0, 15, 15, 12, 0, 1, [1, 1, 1, 0, 0, 1]>, <192, 1, 16, 15, 12, 0, 1, [1, 1, 1, 0, 0, 1]>, <193, 2, 17, 15, 12, 0, 1, [1, 1, 1, 0, 0, 1]>, <194, 3, 18, 15, 12, 0, 1, [1, 1, 1, 0, 0, 1]>, <195, 4, 19, 15, 12, 0, 1, [1, 1, 1, 0, 0, 1]>, <196, 5, 20, 15, 12, 0, 1, [1, 1, 1, 0, 0, 1]>, <197, 6, 21, 15, 12, 0, 1, [1, 1, 1, 0, 0, 1]>, <198, 7, 22, 15, 12, 0, 1, [1, 1, 1, 0, 0, 1]>, <199, 8, 23, 15, 12, 0, 1, [1, 1, 1, 0, 0, 1]>, <200, 9, 24, 15, 12, 0, 1, [1, 1, 1, 0, 0, 1]>, <201, 10, 25, 15, 12, 0, 1, [1, 1, 1, 0, 0, 1]>, <202, 11, 26, 15, 12, 0, 1, [1, 1, 1, 0, 0, 1]>, <203, 12, 27, 15, 12, 0, 1, [1, 1, 1, 0, 0, 1]>, <204, 13, 28, 15, 12, 0, 1, [1, 1, 1, 0, 0, 1]>, <205, 14, 29, 15, 12, 0, 1, [1, 1, 1, 0, 0, 1]>, <206, 0, 13, 13, 13, 0, 0, [1, 1, 1, 1, 0, 0]>, <207, 1, 14, 13, 13, 0, 0, [1, 1, 1, 1, 0, 0]>, <208, 2, 15, 13, 13, 0, 0, [1, 1, 1, 1, 0, 0]>, <209, 3, 16, 13, 13, 0, 0, [1, 1, 1, 1, 0, 0]>, <210, 4, 17, 13, 13, 0, 0, [1, 1, 1, 1, 0, 0]>, <211, 5, 18, 13, 13, 0, 0, [1, 1, 1, 1, 0, 0]>, <212, 7, 20, 13, 13, 0, 0, [1, 1, 1, 1, 0, 0]>, <213, 8, 21, 13, 13, 0, 0, [1, 1, 1, 1, 0, 0]>, <214, 9, 22, 13, 13, 0, 0, [1, 1, 1, 1, 0, 0]>, <215, 10, 23, 13, 13, 0, 0, [1, 1, 1, 1, 0, 0]>, <216, 11, 24, 13, 13, 0, 0, [1, 1, 1, 1, 0, 0]>, <217, 12, 25, 13, 13, 0, 0, [1, 1, 1, 1, 0, 0]>, <218, 13, 26, 13, 13, 0, 0, [1, 1, 1, 1, 0, 0]>, <219, 14, 27, 13, 13, 0, 0, [1, 1, 1, 1, 0, 0]>, <220, 15, 28, 13, 13, 0, 0, [1, 1, 1, 1, 0, 0]>, <221, 16, 29, 13, 13, 0, 0, [1, 1, 1, 1, 0, 0]>, <222, 0, 16, 16, 14, 0, 1, [0, 1, 1, 1, 1, 0]>, <223, 1, 17, 16, 14, 0, 1, [0, 1, 1, 1, 1, 0]>, <224, 2, 18, 16, 14, 0, 1, [0, 1, 1, 1, 1, 0]>, <225, 3, 19, 16, 14, 0, 1, [0, 1, 1, 1, 1, 0]>, <226, 4, 20, 16, 14, 0, 1, [0, 1, 1, 1, 1, 0]>, <227, 5, 21, 16, 14, 0, 1, [0, 1, 1, 1, 1, 0]>, <228, 6, 22, 16, 14, 0, 1, [0, 1, 1, 1, 1, 0]>, <229, 7, 23, 16, 14, 0, 1, [0, 1, 1, 1, 1, 0]>, <230, 8, 24, 16, 14, 0, 1, [0, 1, 1, 1, 1, 0]>, <231, 9, 25, 16, 14, 0, 1, [0, 1, 1, 1, 1, 0]>, <232, 10, 26, 16, 14, 0, 1, [0, 1, 1, 1, 1, 0]>, <233, 11, 27, 16, 14, 0, 1, [0, 1, 1, 1, 1, 0]>, <234, 12, 28, 16, 14, 0, 1, [0, 1, 1, 1, 1, 0]>, <235, 13, 29, 16, 14, 0, 1, [0, 1, 1, 1, 1, 0]>};
